     Program PWSCF v.7.1 starts on 30Jan2023 at 16:10:36

     Reading input from alpha.scf.in

     Current dimensions of program PWSCF are:
     Max number of different atomic species (ntypx) = 10
     Max number of k-points (npk) =  40000
     Max angular momentum in pseudopotentials (lmaxx) =  4

     Subspace diagonalization in iterative solution of the eigenvalue problem:
     a serial algorithm will be used

     Using Slab Decomposition

     bravais-lattice index     =           12
     lattice parameter (alat)  =       9.5463  a.u.
     unit-cell volume          =    3767.0889 (a.u.)^3
     number of atoms/cell      =            8
     number of atomic types    =            1
     number of electrons       =        24.00
     number of Kohn-Sham states=           16
     kinetic-energy cutoff     =      60.0000  Ry
     charge density cutoff     =     400.0000  Ry
     scf convergence threshold =      1.0E-08
     mixing beta               =       0.7000
     number of iterations used =            8  plain     mixing
     energy convergence thresh.=      1.0E-04
     force convergence thresh. =      1.0E-03
     press convergence thresh. =      5.0E-01
     Exchange-correlation=  SLA  PW   PBX  PBC
                           (   1   4   3   4   0   0   0)
     nstep                     =           50

     celldm(1)=   9.546300  celldm(2)=   1.000000  celldm(3)=   5.000000
     celldm(4)=   0.500000  celldm(5)=   0.000000  celldm(6)=   0.000000

     crystal axes: (cart. coord. in units of alat)
               a(1) = (   1.000000   0.000000   0.000000 )
               a(2) = (   0.500000   0.866025   0.000000 )
               a(3) = (   0.000000   0.000000   5.000000 )

     reciprocal axes: (cart. coord. in units 2 pi/alat)
               b(1) = (  1.000000 -0.577350  0.000000 )
               b(2) = (  0.000000  1.154701  0.000000 )
               b(3) = (  0.000000  0.000000  0.200000 )

     PseudoPot. # 1 for B  read from file:
     /home/ngys/Desktop/pseudo/b_pbe_v1.4.uspp.F.UPF
     MD5 check sum: cc6de2960df11db49a60e589f9ebb39b
     Pseudo is Ultrasoft + core correction, Zval =  3.0
     Generated by new atomic code, or converted to UPF format
     Using radial grid of  781 points,  4 beta functions with:
                l(1) =   0
                l(2) =   0
                l(3) =   1
                l(4) =   1
     Q(r) pseudized with  8 coefficients,  rinner =    1.100   1.100   1.100

     atomic species   valence    mass     pseudopotential
        B              3.00    10.81100     B ( 1.00)

      2 Sym. Ops. (no inversion) found

   Cartesian axes

     site n.     atom                  positions (alat units)
         1           B   tau(   1) = (   0.3331562   0.0000000   0.0000000  )
         2           B   tau(   2) = (   0.6665104   0.0000000   0.0000000  )
         3           B   tau(   3) = (   0.1665781   0.2885176   0.0000000  )
         4           B   tau(   4) = (   0.3331562   0.5770353   0.0000000  )
         5           B   tau(   5) = (   0.4997343   0.2885176   0.0000000  )
         6           B   tau(   6) = (   0.6663124   0.5770353   0.0000000  )
         7           B   tau(   7) = (   0.8330885   0.2885176   0.0000000  )
         8           B   tau(   8) = (   0.9996666   0.5770353   0.0000000  )

     number of k points=    52  Marzari-Vanderbilt smearing, width (Ry)=  0.0100
                       cart. coord. in units 2pi/alat
        k(    1) = (   0.0000000   0.0000000   0.0000000), wk =   0.0200000
        k(    2) = (   0.0000000   0.1154701   0.0000000), wk =   0.0400000
        k(    3) = (   0.0000000   0.2309401   0.0000000), wk =   0.0400000
        k(    4) = (   0.0000000   0.3464102   0.0000000), wk =   0.0400000
        k(    5) = (   0.0000000   0.4618802   0.0000000), wk =   0.0400000
        k(    6) = (   0.0000000  -0.5773503   0.0000000), wk =   0.0200000
        k(    7) = (   0.1000000   0.1732051   0.0000000), wk =   0.0400000
        k(    8) = (   0.1000000   0.2886751   0.0000000), wk =   0.0400000
        k(    9) = (   0.1000000   0.4041452   0.0000000), wk =   0.0400000
        k(   10) = (   0.1000000  -0.6350853   0.0000000), wk =   0.0400000
        k(   11) = (   0.2000000   0.3464102   0.0000000), wk =   0.0400000
        k(   12) = (   0.2000000  -0.6928203   0.0000000), wk =   0.0400000
        k(   13) = (   0.2000000  -0.5773503   0.0000000), wk =   0.0400000
        k(   14) = (   0.3000000  -0.6350853   0.0000000), wk =   0.0400000
        k(   15) = (  -0.1000000   0.0577350   0.0000000), wk =   0.0400000
        k(   16) = (   0.1000000   0.0577350   0.0000000), wk =   0.0400000
        k(   17) = (  -0.2000000   0.1154701   0.0000000), wk =   0.0400000
        k(   18) = (   0.2000000   0.1154701   0.0000000), wk =   0.0400000
        k(   19) = (  -0.3000000   0.1732051   0.0000000), wk =   0.0400000
        k(   20) = (   0.3000000   0.1732051   0.0000000), wk =   0.0400000
        k(   21) = (  -0.4000000   0.2309401   0.0000000), wk =   0.0400000
        k(   22) = (   0.4000000   0.2309401   0.0000000), wk =   0.0400000
        k(   23) = (   0.5000000  -0.2886751   0.0000000), wk =   0.0200000
        k(   24) = (  -0.5000000  -0.2886751   0.0000000), wk =   0.0200000
        k(   25) = (  -0.1000000   0.1732051   0.0000000), wk =   0.0400000
        k(   26) = (   0.2000000   0.0000000   0.0000000), wk =   0.0400000
        k(   27) = (  -0.1000000   0.2886751   0.0000000), wk =   0.0400000
        k(   28) = (  -0.2000000   0.2309401   0.0000000), wk =   0.0400000
        k(   29) = (   0.3000000   0.0577350   0.0000000), wk =   0.0400000
        k(   30) = (  -0.2000000  -0.2309401   0.0000000), wk =   0.0400000
        k(   31) = (   0.3000000  -0.0577350   0.0000000), wk =   0.0400000
        k(   32) = (  -0.1000000   0.4041452   0.0000000), wk =   0.0400000
        k(   33) = (  -0.3000000   0.2886751   0.0000000), wk =   0.0400000
        k(   34) = (   0.4000000   0.1154701   0.0000000), wk =   0.0400000
        k(   35) = (  -0.3000000  -0.2886751   0.0000000), wk =   0.0400000
        k(   36) = (   0.4000000  -0.1154701   0.0000000), wk =   0.0400000
        k(   37) = (  -0.1000000  -0.6350853   0.0000000), wk =   0.0400000
        k(   38) = (   0.6000000  -0.2309401   0.0000000), wk =   0.0400000
        k(   39) = (  -0.5000000  -0.4041452   0.0000000), wk =   0.0400000
        k(   40) = (   0.6000000   0.2309401   0.0000000), wk =   0.0400000
        k(   41) = (  -0.5000000   0.4041452   0.0000000), wk =   0.0400000
        k(   42) = (  -0.2000000   0.3464102   0.0000000), wk =   0.0400000
        k(   43) = (   0.4000000   0.0000000   0.0000000), wk =   0.0400000
        k(   44) = (  -0.2000000  -0.6928203   0.0000000), wk =   0.0400000
        k(   45) = (   0.7000000  -0.1732051   0.0000000), wk =   0.0400000
        k(   46) = (  -0.5000000  -0.5196152   0.0000000), wk =   0.0400000
        k(   47) = (   0.7000000   0.1732051   0.0000000), wk =   0.0400000
        k(   48) = (  -0.5000000   0.5196152   0.0000000), wk =   0.0400000
        k(   49) = (   0.6000000  -0.1154701   0.0000000), wk =   0.0400000
        k(   50) = (  -0.4000000  -0.4618802   0.0000000), wk =   0.0400000
        k(   51) = (  -0.3000000  -0.6350853   0.0000000), wk =   0.0400000
        k(   52) = (  -0.4000000  -0.5773503   0.0000000), wk =   0.0400000

     Initial potential from superposition of free atoms

     starting charge      23.9977, renormalised to      24.0000

     negative rho (up, down):  8.115E-05 0.000E+00
     Starting wfcs are   32 randomized atomic wfcs

     Self-consistent Calculation

     iteration #  1     ecut=    60.00 Ry     beta= 0.70
     Davidson diagonalization with overlap
     ethr =  1.00E-02,  avg # of iterations =  2.0

     negative rho (up, down):  8.717E-07 0.000E+00

     total energy              =     -50.79992107 Ry
     estimated scf accuracy    <       0.68087092 Ry

[...]

     End of self-consistent calculation

          k = 0.0000 0.0000 0.0000 ( 29643 PWs)   bands (ev):

   -18.3812 -14.2585 -14.1827 -14.1798 -11.9371 -11.9333  -9.7885  -9.2051
    -4.3202  -4.3191  -2.7710  -2.2674  -2.2661  -2.0254  -2.0229  -1.6214

[...]

          k =-0.1000 0.0577 0.0000 ( 29573 PWs)   bands (ev):

[...]

     the Fermi energy is    -2.6409 ev

!    total energy              =     -50.91653381 Ry
     estimated scf accuracy    <          9.8E-11 Ry
     smearing contrib. (-TS)   =      -0.00049076 Ry
     internal energy E=F+TS    =     -50.91604305 Ry

     The total energy is F=E-TS. E is the sum of the following terms:
     one-electron contribution =    -614.08280213 Ry
     hartree contribution      =     309.54450263 Ry
     xc contribution           =     -23.79073500 Ry
     ewald contribution        =     277.41299144 Ry

     convergence has been achieved in  10 iterations

[...]

     Forces acting on atoms (cartesian axes, Ry/au):

     atom    1 type  1   force =    -0.01371446   -0.00153372    0.00000000
     atom    2 type  1   force =     0.01328334   -0.00156817    0.00000000
     atom    3 type  1   force =    -0.00794899   -0.01177850    0.00000000
     atom    4 type  1   force =     0.00614449    0.01295243    0.00000000
     atom    5 type  1   force =     0.00026551   -0.00030608    0.00000000
     atom    6 type  1   force =    -0.00573060    0.01308300    0.00000000
     atom    7 type  1   force =     0.00724003   -0.01186010    0.00000000
     atom    8 type  1   force =     0.00046068    0.00101114    0.00000000

     Total force =     0.034282     Total SCF correction =     0.000012

     Computing stress (Cartesian axis) and pressure

     negative rho (up, down):  1.289E-05 0.000E+00
          total   stress  (Ry/bohr**3)                   (kbar)     P=        1.13
   0.00001207   0.00000013   0.00000000            1.78        0.02        0.00
   0.00000013   0.00001206   0.00000000            0.02        1.77        0.00
   0.00000000   0.00000000  -0.00000116            0.00        0.00       -0.17

     BFGS Geometry Optimization
     Energy error            =      0.0E+00 Ry
     Gradient error          =      1.4E-02 Ry/Bohr
     Cell gradient error     =      1.8E+00 kbar

     number of scf cycles    =   1
     number of bfgs steps    =   0

     enthalpy           new  =     -50.9165338079 Ry

     new trust radius        =       0.0143359795 bohr
     new conv_thr            =       0.0000000100 Ry

     new unit-cell volume =   3769.36201 a.u.^3 (   558.56182 Ang^3 )
     density =      0.25712 g/cm^3

CELL_PARAMETERS (alat=  9.54630000)
   1.000301743   0.000003300   0.000000000
   0.500153730   0.866288224   0.000000000
   0.000000000   0.000000000   5.000000000

ATOMIC_POSITIONS (angstrom)
B             1.6762482597       -0.0008063250        0.0000000000
B             3.3750473281       -0.0008189567        0.0000000000
B             0.8375510152        1.4517075130        0.0000000000
B             1.6867699837        2.9227408506        0.0000000000
B             2.5254071074        1.4577858537        0.0000000000
B             3.3639918951        2.9228155001        0.0000000000
B             4.2136070890        1.4516754598        0.0000000000
B             5.0517772788        2.9164309850        0.0000000000

     Writing config-only to output data dir ./tmp/x3.save/
     NEW-OLD atomic charge density approx. for the potential

     negative rho (up, down):  1.353E-05 0.000E+00
     extrapolated charge   24.01447, renormalised to   24.00000

[...]

     Energy error            =      7.9E-04 Ry
     Gradient error          =      4.5E-03 Ry/Bohr
     Cell gradient error     =      5.8E-01 kbar

     number of scf cycles    =   2
     number of bfgs steps    =   1

     enthalpy           old  =     -50.9165338079 Ry
     enthalpy           new  =     -50.9173225012 Ry

     CASE: enthalpy          _new < enthalpy          _old

     new trust radius        =       0.0065435693 bohr
     new conv_thr            =       0.0000000004 Ry

     new unit-cell volume =   3770.45198 a.u.^3 (   558.72334 Ang^3 )
     density =      0.25704 g/cm^3

[...]

ATOMIC_POSITIONS (angstrom)
B             1.6730285930       -0.0008872449        0.0000000000
B             3.3787921636       -0.0009002339        0.0000000000
B             0.8359349302        1.4489260455        0.0000000000
B             1.6887720270        2.9261292668        0.0000000000
B             2.5258451745        1.4580323931        0.0000000000
B             3.3628536347        2.9262350000        0.0000000000
B             4.2157784817        1.4489194586        0.0000000000
B             5.0527110092        2.9170193744        0.0000000000

     Writing config-only to output data dir ./tmp/x3.save/
     NEW-OLD atomic charge density approx. for the potential

     negative rho (up, down):  1.242E-05 0.000E+00
     extrapolated charge   24.00694, renormalised to   24.00000

[...]

     Energy error            =      8.7E-05 Ry
     Gradient error          =      8.4E-05 Ry/Bohr
     Cell gradient error     =      7.0E-02 kbar

     bfgs converged in   3 scf cycles and   2 bfgs steps
     (criteria: energy <  1.0E-04 Ry, force <  1.0E-03 Ry/Bohr, cell <  5.0E-01 kbar)

     End of BFGS Geometry Optimization

     Final enthalpy           =     -50.9174095689 Ry

     File ./tmp/x3.bfgs deleted, as requested
Begin final coordinates
     new unit-cell volume =   3770.45198 a.u.^3 (   558.72334 Ang^3 )
     density =      0.25704 g/cm^3

CELL_PARAMETERS (alat=  9.54630000)
   1.000446466   0.000005393   0.000000000
   0.500227904   0.866414421   0.000000000
   0.000000000   0.000000000   5.000000000

ATOMIC_POSITIONS (angstrom)
B             1.6730285930       -0.0008872449        0.0000000000
B             3.3787921636       -0.0009002339        0.0000000000
B             0.8359349302        1.4489260455        0.0000000000
B             1.6887720270        2.9261292668        0.0000000000
B             2.5258451745        1.4580323931        0.0000000000
B             3.3628536347        2.9262350000        0.0000000000
B             4.2157784817        1.4489194586        0.0000000000
B             5.0527110092        2.9170193744        0.0000000000
End final coordinates

     Writing config-only to output data dir ./tmp/x3.save/

     Final scf calculation at the relaxed structure.
     The G-vectors are recalculated for the final unit cell
     Results may differ from those at the preceding step.

     Using Slab Decomposition

     bravais-lattice index     =           12
     lattice parameter (alat)  =       9.5463  a.u.
     unit-cell volume          =    3770.4520 (a.u.)^3
     number of atoms/cell      =            8
     number of atomic types    =            1
     number of electrons       =        24.00
     number of Kohn-Sham states=           16
     kinetic-energy cutoff     =      60.0000  Ry
     charge density cutoff     =     400.0000  Ry
     scf convergence threshold =      4.5E-10
     mixing beta               =       0.7000
     number of iterations used =            8  plain     mixing
     press convergence thresh. =      5.0E-01
     Exchange-correlation=  SLA  PW   PBX  PBC
                           (   1   4   3   4   0   0   0)

     celldm(1)=   9.546300  celldm(2)=   1.000000  celldm(3)=   5.000000
     celldm(4)=   0.500000  celldm(5)=   0.000000  celldm(6)=   0.000000

     crystal axes: (cart. coord. in units of alat)
               a(1) = (   1.000446   0.000005   0.000000 )
               a(2) = (   0.500228   0.866414   0.000000 )
               a(3) = (   0.000000   0.000000   5.000000 )

     reciprocal axes: (cart. coord. in units 2 pi/alat)
               b(1) = (  0.999557 -0.577098  0.000000 )
               b(2) = ( -0.000006  1.154186  0.000000 )
               b(3) = (  0.000000  0.000000  0.200000 )

     PseudoPot. # 1 for B  read from file:
     /home/ngys/Desktop/pseudo/b_pbe_v1.4.uspp.F.UPF
     MD5 check sum: cc6de2960df11db49a60e589f9ebb39b
     Pseudo is Ultrasoft + core correction, Zval =  3.0
     Generated by new atomic code, or converted to UPF format
     Using radial grid of  781 points,  4 beta functions with:
                l(1) =   0
                l(2) =   0
                l(3) =   1
                l(4) =   1
     Q(r) pseudized with  8 coefficients,  rinner =    1.100   1.100   1.100

     atomic species   valence    mass     pseudopotential
        B              3.00    10.81100     B ( 1.00)

      2 Sym. Ops. (no inversion) found

   Cartesian axes

     site n.     atom                  positions (alat units)
         1           B   tau(   1) = (   0.3311823  -0.0001756   0.0000000  )
         2           B   tau(   2) = (   0.6688447  -0.0001782   0.0000000  )
         3           B   tau(   3) = (   0.1654765   0.2868204   0.0000000  )
         4           B   tau(   4) = (   0.3342988   0.5792383   0.0000000  )
         5           B   tau(   5) = (   0.5000006   0.2886230   0.0000000  )
         6           B   tau(   6) = (   0.6656896   0.5792593   0.0000000  )
         7           B   tau(   7) = (   0.8345293   0.2868191   0.0000000  )
         8           B   tau(   8) = (   1.0002032   0.5774350   0.0000000  )

     number of k points=    52  Marzari-Vanderbilt smearing, width (Ry)=  0.0100
                       cart. coord. in units 2pi/alat
        k(    1) = (   0.0000000   0.0000000   0.0000000), wk =   0.0200000
        k(    2) = (  -0.0000006   0.1154186   0.0000000), wk =   0.0400000
        k(    3) = (  -0.0000012   0.2308371   0.0000000), wk =   0.0400000
        k(    4) = (  -0.0000019   0.3462557   0.0000000), wk =   0.0400000
        k(    5) = (  -0.0000025   0.4616743   0.0000000), wk =   0.0400000
        k(    6) = (   0.0000031  -0.5770928   0.0000000), wk =   0.0200000
        k(    7) = (   0.0999544   0.1731273   0.0000000), wk =   0.0400000
        k(    8) = (   0.0999538   0.2885459   0.0000000), wk =   0.0400000
        k(    9) = (   0.0999532   0.4039644   0.0000000), wk =   0.0400000
        k(   10) = (   0.0999588  -0.6348027   0.0000000), wk =   0.0400000
        k(   11) = (   0.1999089   0.3462546   0.0000000), wk =   0.0400000
        k(   12) = (   0.1999145  -0.6925125   0.0000000), wk =   0.0400000
        k(   13) = (   0.1999139  -0.5770939   0.0000000), wk =   0.0400000
        k(   14) = (   0.2998695  -0.6348037   0.0000000), wk =   0.0400000
        k(   15) = (  -0.0999557   0.0577098   0.0000000), wk =   0.0400000
        k(   16) = (   0.0999551   0.0577087   0.0000000), wk =   0.0400000
        k(   17) = (  -0.1999114   0.1154196   0.0000000), wk =   0.0400000
        k(   18) = (   0.1999101   0.1154175   0.0000000), wk =   0.0400000
        k(   19) = (  -0.2998671   0.1731295   0.0000000), wk =   0.0400000
        k(   20) = (   0.2998652   0.1731262   0.0000000), wk =   0.0400000
        k(   21) = (  -0.3998227   0.2308393   0.0000000), wk =   0.0400000
        k(   22) = (   0.3998202   0.2308350   0.0000000), wk =   0.0400000
        k(   23) = (   0.4997784  -0.2885491   0.0000000), wk =   0.0200000
        k(   24) = (  -0.4997753  -0.2885437   0.0000000), wk =   0.0200000
        k(   25) = (  -0.0999563   0.1731284   0.0000000), wk =   0.0400000
        k(   26) = (   0.1999107  -0.0000011   0.0000000), wk =   0.0400000
        k(   27) = (  -0.0999569   0.2885470   0.0000000), wk =   0.0400000
        k(   28) = (  -0.1999120   0.2308382   0.0000000), wk =   0.0400000
        k(   29) = (   0.2998658   0.0577077   0.0000000), wk =   0.0400000
        k(   30) = (  -0.1999095  -0.2308361   0.0000000), wk =   0.0400000
        k(   31) = (   0.2998664  -0.0577109   0.0000000), wk =   0.0400000
        k(   32) = (  -0.0999576   0.4039655   0.0000000), wk =   0.0400000
        k(   33) = (  -0.2998677   0.2885480   0.0000000), wk =   0.0400000
        k(   34) = (   0.3998209   0.1154164   0.0000000), wk =   0.0400000
        k(   35) = (  -0.2998646  -0.2885448   0.0000000), wk =   0.0400000
        k(   36) = (   0.3998221  -0.1154207   0.0000000), wk =   0.0400000
        k(   37) = (  -0.0999520  -0.6348016   0.0000000), wk =   0.0400000
        k(   38) = (   0.5997335  -0.2308404   0.0000000), wk =   0.0400000
        k(   39) = (  -0.4997747  -0.4039623   0.0000000), wk =   0.0400000
        k(   40) = (   0.5997310   0.2308339   0.0000000), wk =   0.0400000
        k(   41) = (  -0.4997790   0.4039677   0.0000000), wk =   0.0400000
        k(   42) = (  -0.1999126   0.3462568   0.0000000), wk =   0.0400000
        k(   43) = (   0.3998215  -0.0000022   0.0000000), wk =   0.0400000
        k(   44) = (  -0.1999070  -0.6925103   0.0000000), wk =   0.0400000
        k(   45) = (   0.6996885  -0.1731316   0.0000000), wk =   0.0400000
        k(   46) = (  -0.4997741  -0.5193809   0.0000000), wk =   0.0400000
        k(   47) = (   0.6996867   0.1731241   0.0000000), wk =   0.0400000
        k(   48) = (  -0.4997797   0.5193862   0.0000000), wk =   0.0400000
        k(   49) = (   0.5997329  -0.1154218   0.0000000), wk =   0.0400000
        k(   50) = (  -0.3998190  -0.4616721   0.0000000), wk =   0.0400000
        k(   51) = (  -0.2998627  -0.6348005   0.0000000), wk =   0.0400000
        k(   52) = (  -0.3998184  -0.5770907   0.0000000), wk =   0.0400000

     Initial potential from superposition of free atoms

     starting charge      23.9977, renormalised to      24.0000

     negative rho (up, down):  8.031E-05 0.000E+00
     Starting wfcs are   32 randomized atomic wfcs

     Self-consistent Calculation

     iteration #  1     ecut=    60.00 Ry     beta= 0.70
     Davidson diagonalization with overlap
     c_bands:  1 eigenvalues not converged
     c_bands:  2 eigenvalues not converged
     c_bands:  1 eigenvalues not converged
     c_bands:  1 eigenvalues not converged
     c_bands:  1 eigenvalues not converged
     c_bands:  1 eigenvalues not converged
     c_bands:  1 eigenvalues not converged
     c_bands:  2 eigenvalues not converged
     c_bands:  2 eigenvalues not converged
     ethr =  1.00E-06,  avg # of iterations = 14.8

[...]

     iteration #  5     ecut=    60.00 Ry     beta= 0.70
     Davidson diagonalization with overlap
     c_bands:  1 eigenvalues not converged
     c_bands:  1 eigenvalues not converged
     ethr =  4.10E-07,  avg # of iterations =  6.2

[...]

     total energy              =     -50.91741317 Ry
     estimated scf accuracy    <          6.6E-10 Ry

     iteration # 10     ecut=    60.00 Ry     beta= 0.70
     Davidson diagonalization with overlap
     ethr =  2.75E-12,  avg # of iterations =  3.5

[...]

     End of self-consistent calculation

[...]

          k = 0.5997-0.1154 0.0000 ( 29646 PWs)   bands (ev):

[...]

          k =-0.3998-0.5771 0.0000 ( 29628 PWs)   bands (ev):

   -17.2850 -16.9309 -15.0740 -11.8160 -11.5090 -10.0975 -10.0511  -7.4946
    -6.9448  -6.7017  -6.6067  -5.1955  -0.1429   0.5055   0.6230   0.9735

     the Fermi energy is    -2.6704 ev

!    total energy              =     -50.91741317 Ry
     estimated scf accuracy    <          5.2E-11 Ry
     smearing contrib. (-TS)   =      -0.00047714 Ry
     internal energy E=F+TS    =     -50.91693603 Ry

     The total energy is F=E-TS. E is the sum of the following terms:
     one-electron contribution =    -613.21983183 Ry
     hartree contribution      =     309.10412395 Ry
     xc contribution           =     -23.76614450 Ry
     ewald contribution        =     276.96491634 Ry

     convergence has been achieved in  10 iterations

     negative rho (up, down):  1.311E-05 0.000E+00

     Forces acting on atoms (cartesian axes, Ry/au):

     atom    1 type  1   force =    -0.00006651    0.00001552    0.00000000
     atom    2 type  1   force =    -0.00003750    0.00002488    0.00000000
     atom    3 type  1   force =    -0.00002066   -0.00002829    0.00000000
     atom    4 type  1   force =     0.00002650   -0.00000610    0.00000000
     atom    5 type  1   force =     0.00001220    0.00003610    0.00000000
     atom    6 type  1   force =     0.00000964   -0.00004533    0.00000000
     atom    7 type  1   force =    -0.00000776    0.00000851    0.00000000
     atom    8 type  1   force =     0.00008409   -0.00000530    0.00000000

     Total force =     0.000140     Total SCF correction =     0.000007

     Computing stress (Cartesian axis) and pressure

     negative rho (up, down):  1.311E-05 0.000E+00
          total   stress  (Ry/bohr**3)                   (kbar)     P=       -0.01
   0.00000047   0.00000001   0.00000000            0.07        0.00        0.00
   0.00000001   0.00000048   0.00000000            0.00        0.07        0.00
   0.00000000   0.00000000  -0.00000116            0.00        0.00       -0.17

     Writing all to output data dir ./tmp/x3.save/

     General routines

     Parallel routines

   This run was terminated on:  16:46:46  30Jan2023

   JOB DONE.